(set-info :smt-lib-version 2.6)
(set-logic QF_UFLRA)
(set-info :source |
MathSat group

|)
(set-info :category "random")
(set-info :status sat)
(declare-fun x0 () Real)
(declare-fun x1 () Real)
(declare-fun x2 () Real)
(declare-fun x3 () Real)
(declare-fun x4 () Real)
(declare-fun x5 () Real)
(declare-fun x6 () Real)
(declare-fun x7 () Real)
(declare-fun x8 () Real)
(declare-fun x9 () Real)
(declare-fun x10 () Real)
(declare-fun x11 () Real)
(declare-fun x12 () Real)
(declare-fun x13 () Real)
(declare-fun x14 () Real)
(declare-fun x15 () Real)
(declare-fun x16 () Real)
(declare-fun x17 () Real)
(declare-fun x18 () Real)
(declare-fun x19 () Real)
(declare-fun x20 () Real)
(declare-fun x21 () Real)
(declare-fun x22 () Real)
(declare-fun x23 () Real)
(declare-fun x24 () Real)
(declare-fun x25 () Real)
(declare-fun x26 () Real)
(declare-fun x27 () Real)
(declare-fun x28 () Real)
(declare-fun x29 () Real)
(declare-fun x30 () Real)
(declare-fun x31 () Real)
(declare-fun x32 () Real)
(declare-fun x33 () Real)
(declare-fun x34 () Real)
(declare-fun x35 () Real)
(declare-fun x36 () Real)
(declare-fun x37 () Real)
(declare-fun x38 () Real)
(declare-fun x39 () Real)
(declare-fun f0_1 (Real) Real)
(declare-fun f0_2 (Real Real) Real)
(declare-fun f0_3 (Real Real Real) Real)
(declare-fun f0_4 (Real Real Real Real) Real)
(declare-fun P0 () Bool)
(declare-fun P1 () Bool)
(declare-fun P2 () Bool)
(declare-fun P3 () Bool)
(declare-fun P4 () Bool)
(declare-fun P5 () Bool)
(declare-fun P6 () Bool)
(declare-fun P7 () Bool)
(declare-fun P8 () Bool)
(declare-fun P9 () Bool)
(declare-fun P10 () Bool)
(declare-fun P11 () Bool)
(declare-fun P12 () Bool)
(declare-fun P13 () Bool)
(declare-fun P14 () Bool)
(declare-fun P15 () Bool)
(declare-fun P16 () Bool)
(declare-fun P17 () Bool)
(declare-fun P18 () Bool)
(declare-fun P19 () Bool)
(declare-fun P20 () Bool)
(declare-fun P21 () Bool)
(declare-fun P22 () Bool)
(declare-fun P23 () Bool)
(declare-fun P24 () Bool)
(declare-fun P25 () Bool)
(declare-fun P26 () Bool)
(declare-fun P27 () Bool)
(declare-fun P28 () Bool)
(declare-fun P29 () Bool)
(declare-fun P30 () Bool)
(declare-fun P31 () Bool)
(declare-fun P32 () Bool)
(declare-fun P33 () Bool)
(declare-fun P34 () Bool)
(declare-fun P35 () Bool)
(declare-fun P36 () Bool)
(declare-fun P37 () Bool)
(declare-fun P38 () Bool)
(declare-fun P39 () Bool)
(assert (let ((?v_7 (* 17 x4)) (?v_36 (* 28 x14)) (?v_10 (* 11 x19)) (?v_59 (<= (- (- (* 34 x34) (* 30 x11)) (* 42 x30)) 24)) (?v_26 (<= (- (+ (* 22 x5) (* 30 x10)) (* 57 x15)) 38))) (let ((?v_78 (< (+ (- (* 39 x7) (* 8 x24)) ?v_7) 9)) (?v_163 (<= (- (+ (* 50 x32) (* 57 x8)) (* 51 x20)) 34)) (?v_45 (<= (+ (- (* 43 x25) (* 14 x25)) (* 19 x22)) 44)) (?v_51 (* 11 x27)) (?v_53 (<= (- (- (* 22 x6) (* 31 x21)) (* 43 x12)) 45)) (?v_24 (= (f0_2 x34 x29) (f0_2 x23 x23))) (?v_101 (distinct (f0_1 x25) x33)) (?v_121 (f0_1 x11))) (let ((?v_181 (distinct ?v_121 (f0_1 x8))) (?v_0 (distinct (f0_2 x38 x34) (f0_2 x4 x32))) (?v_193 (= x11 (f0_1 x26))) (?v_63 (f0_1 x20))) (let ((?v_106 (distinct ?v_63 ?v_63)) (?v_33 (= (f0_1 x24) x33)) (?v_28 (distinct (f0_2 x25 x15) (f0_2 x1 x20))) (?v_70 (distinct (f0_1 x30) (f0_2 x27 x13))) (?v_146 (= (f0_1 x4) x14)) (?v_119 (= x28 (f0_1 x21))) (?v_13 (f0_1 x38))) (let ((?v_29 (= ?v_13 x29)) (?v_111 (= x14 (f0_2 x23 x2))) (?v_153 (distinct x30 (f0_2 x25 x11))) (?v_134 (distinct (f0_1 x28) (f0_2 x13 x9))) (?v_115 (= (f0_2 x18 x13) x8)) (?v_57 (= (f0_2 x1 x36) (f0_2 x21 x14))) (?v_113 (distinct x5 x5)) (?v_91 (distinct x21 (f0_1 x17))) (?v_18 (distinct (f0_2 x20 x3) (f0_2 x22 x15))) (?v_112 (= x39 (f0_2 x12 x37))) (?v_71 (distinct x8 (f0_1 x13))) (?v_5 (distinct (f0_1 x12) (f0_2 x3 x31))) (?v_120 (= (f0_2 x13 x6) x4)) (?v_173 (= x9 x14)) (?v_46 (f0_1 x9))) (let ((?v_8 (= (f0_2 x6 x8) ?v_46)) (?v_34 (distinct (f0_2 x16 x16) x36)) (?v_164 (distinct x19 (f0_2 x3 x7))) (?v_60 (= (f0_1 x14) (f0_2 x11 x33))) (?v_133 (= (f0_1 x33) ?v_63)) (?v_49 (= (f0_2 x19 x0) (f0_2 x11 x27))) (?v_94 (= (f0_1 x32) x13)) (?v_90 (distinct ?v_121 (f0_2 x0 x35))) (?v_40 (f0_1 x36))) (let ((?v_19 (distinct (f0_2 x3 x17) ?v_40)) (?v_122 (distinct (f0_2 x2 x0) (f0_1 x18))) (?v_11 (distinct (f0_1 x39) x36)) (?v_42 (distinct x8 ?v_40)) (?v_92 (= ?v_13 x31)) (?v_48 (= x22 x39)) (?v_88 (distinct ?v_46 (f0_2 x15 x31))) (?v_99 (not P26)) (?v_169 (not P38)) (?v_12 (not ?v_57)) (?v_87 (not ?v_45)) (?v_66 (not P35)) (?v_145 (not P34)) (?v_1 (not ?v_59)) (?v_37 (not ?v_8)) (?v_68 (not ?v_78)) (?v_123 (not ?v_134)) (?v_16 (not ?v_101))) (let ((?v_159 (not ?v_48)) (?v_15 (not P17)) (?v_80 (not P6)) (?v_55 (not P2)) (?v_142 (not P23)) (?v_95 (not P39)) (?v_73 (not ?v_119)) (?v_54 (not P28)) (?v_171 (not ?v_153)) (?v_32 (not ?v_28)) (?v_21 (not ?v_112)) (?v_110 (not P37)) (?v_67 (not P15)) (?v_190 (not ?v_193)) (?v_151 (not P11)) (?v_27 (not ?v_71)) (?v_58 (not ?v_19)) (?v_25 (not P27)) (?v_44 (not P31)) (?v_97 (not ?v_49)) (?v_178 (not P25)) (?v_75 (not P14)) (?v_140 (not ?v_33)) (?v_179 (not ?v_34)) (?v_114 (not P20)) (?v_118 (not ?v_42))) (let ((?v_183 (or P39 ?v_44)) (?v_149 (not P9)) (?v_77 (not ?v_111)) (?v_76 (not ?v_53)) (?v_56 (not ?v_164)) (?v_117 (not P30)) (?v_81 (not ?v_5)) (?v_194 (not ?v_173)) (?v_89 (not ?v_90)) (?v_65 (not ?v_106)) (?v_135 (not P19)) (?v_126 (not P29)) (?v_165 (not ?v_60)) (?v_131 (not P13)) (?v_104 (not P3)) (?v_144 (not P12)) (?v_172 (not ?v_88)) (?v_105 (not ?v_94)) (?v_166 (not ?v_113)) (?v_107 (not P33)) (?v_136 (not P1)) (?v_207 (not P22)) (?v_199 (not ?v_115)) (?v_137 (not ?v_120)) (?v_158 (not P7)) (?v_128 (not P10)) (?v_155 (not P4)) (?v_129 (not ?v_18)) (?v_152 (not P18)) (?v_182 (not P32)) (?v_143 (not ?v_91)) (?v_191 (not ?v_92)) (?v_141 (not ?v_122)) (?v_139 (not P36)) (?v_157 (not ?v_24)) (?v_161 (not ?v_29)) (?v_168 (not P16)) (?v_195 (not ?v_26)) (?v_187 (not ?v_163)) (?v_176 (not ?v_146)) (?v_188 (not P24)) (?v_202 (not P21)) (?v_204 (not P0)) (?v_185 (not P8)) (?v_197 (not ?v_0)) (?v_192 (not ?v_70)) (?v_198 (not ?v_133)) (?v_205 (not ?v_11)) (?v_206 (not ?v_181)) (?v_61 (< (- (+ (* 16 x8) x22) (* 31 x10)) 37))) (let ((?v_43 (not ?v_61)) (?v_84 (distinct (- (- 0 (* 3 x3)) (* 49 x15)) 52))) (let ((?v_96 (not ?v_84)) (?v_162 (<= (+ (* 30 x1) (* 18 x6) ?v_36) 7))) (let ((?v_30 (not ?v_162)) (?v_103 (= (+ (* 16 x13) (* 54 x13) (* 44 x3)) 20)) (?v_170 (< (+ (* 15 x1) (* 14 x39) (* 2 x35)) 47))) (let ((?v_150 (not ?v_170)) (?v_201 (or ?v_103 ?v_15)) (?v_180 (not ?v_103)) (?v_9 (= (+ (* (- 37) x10) (* 57 x38) (* 51 x31)) (- 54))) (?v_14 (< (+ (- (* (- 2) x23) ?v_10) (* 27 x18)) 8)) (?v_2 (< (+ (- (* 55 x19) (* 43 x31)) (* 9 x16)) (- 26))) (?v_3 (<= (+ (- (* (- 51) x8) (* 13 x18)) (* 19 x36)) (- 43))) (?v_6 (< (+ (* (- 34) x14) (* 35 x7) (* 49 x29)) 34))) (let ((?v_38 (not ?v_6)) (?v_167 (< (- (+ (* (- 7) x34) (* 8 x8)) (* 20 x25)) (- 37)))) (let ((?v_189 (not ?v_167)) (?v_50 (< (+ (* (- 54) x15) (* 21 x32) (* 48 x18)) 22))) (let ((?v_100 (not ?v_50)) (?v_154 (not ?v_3)) (?v_4 (< (- (* 37 x27) (* 57 x30)) (- 33)))) (let ((?v_41 (not ?v_4)) (?v_130 (< (+ (* 45 x20) (* 34 x32) (* 35 x35)) (- 15)))) (let ((?v_22 (not ?v_130)) (?v_85 (distinct (- (* 40 x9) (* 55 x30)) (- 54)))) (let ((?v_47 (not ?v_85)) (?v_39 (< (- (+ (* (- 13) x13) ?v_7) x23) (- 21)))) (let ((?v_86 (not ?v_39)) (?v_17 (<= (+ (- (* (- 57) x29) (* 57 x23)) (* 22 x4)) (- 39))) (?v_177 (< (+ (* (- 8) x12) (* 9 x26) (* 54 x16)) 31)) (?v_186 (< (- (+ (* 54 x21) (* 5 x2)) (* 19 x28)) (- 41)))) (let ((?v_20 (not ?v_186)) (?v_74 (not ?v_9)) (?v_31 (<= (+ (* 19 x0) ?v_10 (* 49 x22)) (- 55))) (?v_79 (< (+ (- (* (- 19) x23) (* 49 x25)) (* 50 x35)) 42)) (?v_98 (not ?v_14)) (?v_69 (= (- (- 0 (* 46 x12)) (* 57 x10)) (- 42))) (?v_93 (<= (+ (* 40 x26) (* 56 x33) (* 41 x27)) (- 50)))) (let ((?v_125 (not ?v_93)) (?v_52 (<= (- (- (* (- 57) x20) (* 34 x33)) (* 19 x25)) 37)) (?v_23 (distinct (- (+ (* (- 29) x32) (* 3 x8)) (* 42 x15)) 2))) (let ((?v_35 (not ?v_23)) (?v_62 (< (- (+ (* 55 x35) (* 32 x35)) ?v_51) (- 57))) (?v_156 (< (- (+ (* 56 x6) (* 25 x1)) ?v_36) (- 13))) (?v_64 (<= (+ (- (* 47 x21) (* 31 x33)) (* 18 x21)) (- 16))) (?v_72 (not ?v_17)) (?v_102 (<= (+ (- (* 19 x19) ?v_51) (* 52 x25)) (- 13))) (?v_116 (not ?v_52)) (?v_109 (<= (+ (* (- 28) x24) (* 35 x25) (* 48 x1)) (- 40)))) (let ((?v_108 (not ?v_64)) (?v_82 (not ?v_2)) (?v_160 (not ?v_62)) (?v_138 (not ?v_79)) (?v_83 (not ?v_31)) (?v_148 (not ?v_102)) (?v_124 (not ?v_69)) (?v_147 (< (- (+ (* (- 5) x16) (* 47 x16)) (* 31 x23)) (- 7)))) (let ((?v_184 (not ?v_147)) (?v_127 (<= (+ (* 28 x10) (* 9 x21) (* 18 x36)) (- 48))) (?v_132 (<= (+ (* 37 x20) (* 57 x39) (* 35 x28)) (- 15))) (?v_200 (< (+ (- (* (- 14) x4) (* 16 x11)) (* 35 x11)) (- 1)))) (let ((?v_196 (not ?v_127)) (?v_174 (not ?v_156)) (?v_175 (not ?v_132)) (?v_203 (not ?v_109))) (and (and (and (and (and (and (and (and (and (and (and (and (and (and (and (and (and (and (and (and (and (and (and (and (and (and (and (and (and (and (and (and (and (and (and (and (and (and (and (and (and (and (and (and (and (and (and (and (and (and (and (and (and (and (and (and (and (and (and (and (and (and (and (and (and (and (and (and (and (and (and (and (and (and (and (and (and (and (and (and (and (and (and (and (and (and (and (and (and (and (and (and (and (and (and (and (and (and (and (and (and (and (and (and (and (and (and (and (and (and (and (and (and (and (and (and (and (and (and (and (and (and (and (and (and (and (and (and (and (and (and (and (and (and (and (and (and (and (and (and (and (and (and (and (and (and (and (and (and (and (and (and (and (and (and (and (and (and (and (and (and (and (and (and (and (and (and (and (and (and (and (and (and (and (and (and (and (and (and (and (and (and (and (and (and (and (and (and (and (and (and (and (and (and (and (and (and (and (and (and (and (and (and (and (and (and (and (and (and (and (and (and (and (and (and (and (and (and (and (and (and (and (and (and (and (and (and (and (and (and (and (and (and (and (and (and (and (and (and (and (and (and (and (and (and (and (and (and (and (and (and (and (and (and (and (and (and (and (and (and (and (and (and (and (and (and (and (and (and (and (and (and (and (and (and (and (and (and (and (and (and (and (and (and (and (and (and (and (and (and (and (and (and (and (and (and (and (and (and (and (and (and (and (and (and (and (and (and (and (and (and (and (and (and (and (and (and (and (and (and (and (and (and (and (and (and (and (and (and (and (and (and (and (and (and (and (and (and (and (and (and (and (and (and (and (and (and (and (and (and (and (and (and (and (and (and (and (and (and (and (and (and (and (and (and (and (and (and (and (and (and (and (and (and (and (and (and (and (and (and (and (and (and (and (and (and (and (and (and (and (and (and (and (and (and (and (and (and (and (and (and (and (and (and (and (and (and (and (and (and (and (and (and (and (and (and (and (and (and (and (and (and (and (and (and (and (and (and (and (and (and (and (and (and (and (and (and (and (and (and (and (and (and (and (and (and (and (and (and (and (and (and (and (and (and (and (and (and (and (and (and (and (and (and (and (and (and (and (and (and (and (and (and (and (and (and (and (and (and (or (or ?v_99 ?v_169) ?v_0) (or (or P7 ?v_9) P20)) (or (or ?v_14 ?v_12) ?v_0)) (or (or ?v_87 ?v_66) ?v_2)) (or (or ?v_3 ?v_145) ?v_38)) (or (or ?v_189 ?v_1) P24)) (or (or ?v_37 P11) ?v_1)) (or (or ?v_100 ?v_2) ?v_68)) (or (or P19 ?v_154) ?v_41)) (or (or ?v_5 ?v_123) P5)) (or (or ?v_22 ?v_4) ?v_43)) (or (or ?v_16 ?v_47) ?v_159)) (or (or P22 ?v_15) ?v_92)) (or (or ?v_80 ?v_5) ?v_0)) (or (or ?v_6 ?v_86) ?v_11)) (or (or P18 ?v_17) P34)) (or (or P21 ?v_55) ?v_177)) (or (or P1 ?v_20) P5)) (or (or ?v_8 ?v_142) ?v_74)) (or (or ?v_95 ?v_18) ?v_2)) (or (or ?v_31 ?v_2) ?v_96)) (or (or ?v_73 ?v_54) ?v_79)) (or (or ?v_171 P24) ?v_11)) (or (or ?v_115 ?v_32) ?v_12)) (or (or ?v_21 ?v_29) ?v_110)) (or (or ?v_3 ?v_98) P14)) (or (or ?v_15 ?v_1) ?v_16)) (or (or ?v_67 ?v_19) P36)) (or (or ?v_17 ?v_190) ?v_18)) (or (or ?v_70 ?v_30) ?v_69)) (or (or ?v_24 ?v_151) ?v_125)) (or (or ?v_27 P12) ?v_58)) (or (or ?v_26 ?v_20) ?v_25)) (or (or ?v_21 ?v_22) ?v_52)) (or (or P27 P39) ?v_23)) (or (or P7 ?v_35) ?v_24)) (or (or ?v_44 P15) ?v_6)) (or (or ?v_34 P32) ?v_62)) (or (or ?v_25 P1) ?v_26)) (or (or ?v_27 P34) ?v_28)) (or (or ?v_29 ?v_94) P34)) (or (or P31 ?v_97) ?v_20)) (or (or ?v_30 ?v_31) ?v_33)) (or (or ?v_178 ?v_75) ?v_32)) (or (or ?v_140 ?v_12) P37)) (or (or ?v_179 ?v_60) ?v_35)) (or (or ?v_22 ?v_14) ?v_114)) (or (or ?v_53 ?v_156) ?v_37)) (or (or ?v_1 ?v_38) P19)) (or (or ?v_39 P30) ?v_118)) (or (or ?v_41 ?v_42) ?v_43)) (or ?v_183 ?v_45)) (or (or ?v_15 ?v_88) P36)) (or (or P6 ?v_64) ?v_47)) (or (or ?v_149 ?v_48) P6)) (or (or ?v_16 ?v_49) ?v_72)) (or (or ?v_77 ?v_37) ?v_103)) (or (or ?v_50 P19) ?v_102)) (or (or ?v_116 ?v_76) ?v_54)) (or (or ?v_5 ?v_56) ?v_55)) (or (or ?v_39 ?v_56) ?v_53)) (or (or P27 P29) ?v_57)) (or (or ?v_117 ?v_58) P24)) (or (or ?v_59 ?v_109) ?v_81)) (or (or P36 ?v_60) ?v_194)) (or (or P30 ?v_61) P24)) (or (or P19 ?v_25) ?v_89)) (or (or ?v_33 ?v_62) P14)) (or (or ?v_65 ?v_135) ?v_91)) (or (or ?v_39 ?v_108) ?v_65)) (or (or P22 ?v_82) ?v_66)) (or (or ?v_126 ?v_67) ?v_165)) (or (or ?v_68 ?v_69) P2)) (or (or ?v_70 ?v_47) ?v_39)) (or (or P38 ?v_71) ?v_58)) (or (or P5 ?v_72) ?v_73)) (or (or P0 ?v_55) P26)) (or (or ?v_163 ?v_74) ?v_75)) (or (or ?v_76 ?v_77) ?v_78)) (or (or ?v_160 ?v_138) ?v_38)) (or (or ?v_5 ?v_80) ?v_75)) (or (or ?v_131 ?v_81) ?v_55)) (or (or ?v_23 ?v_83) ?v_82)) (or (or P10 ?v_49) ?v_83)) (or (or P37 ?v_84) ?v_85)) (or (or ?v_76 ?v_9) ?v_86)) (or (or ?v_55 P6) ?v_87)) (or (or ?v_88 ?v_89) P9)) (or (or P0 ?v_104) ?v_90)) (or (or ?v_133 ?v_144) P20)) (or (or ?v_88 ?v_91) ?v_8)) (or (or ?v_92 ?v_93) P23)) (or (or ?v_172 ?v_73) ?v_1)) (or (or ?v_105 ?v_95) ?v_96)) (or (or ?v_71 ?v_97) ?v_32)) (or (or P17 ?v_166) ?v_35)) (or (or ?v_28 ?v_87) P7)) (or (or P21 P19) P28)) (or (or ?v_146 ?v_1) ?v_15)) (or (or ?v_98 ?v_17) ?v_99)) (or (or ?v_100 ?v_101) ?v_80)) (or (or P34 ?v_66) ?v_148)) (or (or ?v_74 ?v_103) ?v_91)) (or (or ?v_34 ?v_2) ?v_104)) (or (or ?v_124 ?v_105) ?v_184)) (or (or ?v_39 ?v_5) ?v_61)) (or (or ?v_59 ?v_106) ?v_24)) (or (or ?v_107 ?v_105) ?v_2)) (or (or P31 ?v_136) ?v_83)) (or (or ?v_55 ?v_107) P8)) (or (or ?v_108 ?v_92) P25)) (or (or ?v_109 ?v_11) ?v_110)) (or (or ?v_66 ?v_111) ?v_112)) (or (or ?v_11 ?v_92) ?v_74)) (or (or ?v_12 ?v_65) ?v_100)) (or (or ?v_113 ?v_207) ?v_114)) (or (or ?v_11 P33) ?v_8)) (or (or ?v_38 ?v_42) ?v_66)) (or (or ?v_32 P31) ?v_14)) (or (or ?v_27 P6) ?v_14)) (or (or ?v_199 P9) ?v_122)) (or (or ?v_55 ?v_116) ?v_137)) (or (or ?v_117 ?v_110) ?v_74)) (or (or ?v_158 ?v_54) P23)) (or (or ?v_112 ?v_44) ?v_104)) (or (or ?v_62 ?v_118) ?v_98)) (or (or ?v_54 ?v_66) P14)) (or (or ?v_128 ?v_119) ?v_21)) (or (or ?v_155 P22) ?v_45)) (or (or ?v_120 ?v_80) ?v_14)) (or (or ?v_45 ?v_48) P22)) (or (or ?v_73 P28) ?v_2)) (or (or ?v_21 ?v_4) ?v_129)) (or (or ?v_11 ?v_181) ?v_49)) (or (or ?v_76 ?v_127) P31)) (or (or P23 P30) ?v_122)) (or (or P39 ?v_45) P18)) (or (or ?v_113 P35) ?v_22)) (or (or P33 ?v_64) ?v_60)) (or (or ?v_105 ?v_123) P23)) (or (or ?v_9 ?v_11) P5)) (or (or ?v_124 ?v_4) P19)) (or (or ?v_24 ?v_35) ?v_64)) (or (or ?v_106 ?v_72) ?v_0)) (or (or ?v_125 ?v_69) ?v_19)) (or (or P24 ?v_152) ?v_150)) (or (or ?v_126 ?v_182) ?v_143)) (or (or ?v_127 ?v_128) ?v_9)) (or (or P21 ?v_129) ?v_3)) (or (or P4 ?v_56) ?v_73)) (or (or ?v_26 ?v_102) ?v_132)) (or (or P36 ?v_130) ?v_70)) (or ?v_201 ?v_131)) (or (or ?v_132 ?v_109) ?v_92)) (or (or ?v_133 ?v_134) ?v_135)) (or (or ?v_191 P16) ?v_3)) (or (or ?v_69 ?v_95) ?v_131)) (or (or ?v_48 P23) P13)) (or (or ?v_141 ?v_35) ?v_136)) (or (or ?v_5 ?v_137) ?v_76)) (or (or ?v_131 ?v_110) ?v_97)) (or (or ?v_139 ?v_138) ?v_89)) (or (or ?v_139 ?v_140) ?v_75)) (or (or ?v_83 ?v_37) P21)) (or (or P28 ?v_86) ?v_92)) (or (or ?v_117 ?v_104) ?v_54)) (or (or P9 P1) ?v_157)) (or (or ?v_200 ?v_26) P9)) (or (or ?v_19 ?v_137) ?v_39)) (or (or ?v_180 ?v_5) ?v_89)) (or (or ?v_82 ?v_141) ?v_142)) (or (or ?v_161 ?v_143) ?v_123)) (or (or ?v_34 ?v_144) ?v_60)) (or (or ?v_30 ?v_113) ?v_145)) (or (or ?v_146 ?v_114) ?v_12)) (or (or ?v_2 ?v_75) ?v_147)) (or (or P12 ?v_148) ?v_14)) (or (or ?v_102 ?v_41) ?v_12)) (or (or ?v_99 ?v_149) ?v_144)) (or (or ?v_125 P30) ?v_3)) (or (or ?v_54 P13) ?v_50)) (or (or ?v_120 ?v_150) ?v_151)) (or (or ?v_12 P37) ?v_133)) (or (or ?v_92 P4) P22)) (or (or P37 P27) P16)) (or (or ?v_54 P24) ?v_3)) (or (or ?v_11 ?v_119) ?v_5)) (or (or ?v_54 ?v_43) ?v_1)) (or (or ?v_93 ?v_152) ?v_22)) (or (or ?v_25 ?v_168) ?v_153)) (or (or ?v_58 ?v_72) ?v_67)) (or (or P19 ?v_15) P39)) (or (or ?v_69 ?v_154) ?v_147)) (or (or ?v_155 ?v_111) ?v_196)) (or (or ?v_118 ?v_102) ?v_131)) (or (or ?v_137 ?v_93) ?v_174)) (or (or P28 ?v_151) P9)) (or (or ?v_26 ?v_195) P15)) (or (or ?v_100 ?v_56) ?v_140)) (or (or ?v_35 ?v_5) ?v_80)) (or (or P22 ?v_133) ?v_157)) (or (or ?v_39 ?v_50) ?v_158)) (or (or ?v_158 ?v_131) P36)) (or (or P4 ?v_67) ?v_52)) (or (or ?v_44 ?v_88) ?v_159)) (or (or ?v_77 ?v_78) ?v_62)) (or (or ?v_160 ?v_1) P38)) (or (or P2 ?v_144) ?v_62)) (or (or P22 ?v_160) P13)) (or (or ?v_81 P7) ?v_123)) (or (or ?v_78 P5) ?v_120)) (or (or ?v_138 ?v_83) ?v_75)) (or (or ?v_26 ?v_86) ?v_161)) (or (or ?v_146 ?v_127) ?v_162)) (or (or ?v_105 ?v_83) ?v_75)) (or (or ?v_141 ?v_163) ?v_54)) (or (or ?v_145 ?v_124) ?v_113)) (or (or P6 ?v_65) ?v_164)) (or (or ?v_163 ?v_115) ?v_61)) (or (or ?v_33 ?v_3) ?v_147)) (or (or ?v_165 ?v_84) ?v_35)) (or (or P16 ?v_25) ?v_153)) (or (or ?v_28 ?v_155) P15)) (or (or ?v_28 ?v_27) ?v_38)) (or (or ?v_25 ?v_39) ?v_45)) (or (or ?v_122 ?v_12) ?v_75)) (or (or ?v_144 ?v_107) P5)) (or (or ?v_126 ?v_57) ?v_159)) (or (or ?v_141 ?v_166) ?v_167)) (or (or P16 ?v_50) ?v_144)) (or (or ?v_187 ?v_41) ?v_146)) (or (or ?v_3 ?v_175) P20)) (or (or ?v_168 ?v_123) ?v_169)) (or (or ?v_131 ?v_15) P26)) (or (or ?v_60 ?v_170) P13)) (or (or P34 ?v_53) ?v_55)) (or (or ?v_70 P18) ?v_160)) (or (or ?v_171 ?v_8) ?v_91)) (or (or ?v_176 ?v_31) ?v_28)) (or (or ?v_49 ?v_125) ?v_32)) (or (or ?v_99 ?v_142) ?v_144)) (or (or ?v_96 ?v_126) ?v_60)) (or (or ?v_115 ?v_3) ?v_90)) (or (or ?v_112 P6) ?v_172)) (or (or ?v_154 ?v_173) ?v_159)) (or (or ?v_103 ?v_64) ?v_99)) (or (or ?v_117 P25) ?v_56)) (or (or ?v_106 ?v_160) ?v_91)) (or (or ?v_25 ?v_174) ?v_92)) (or (or ?v_22 ?v_130) ?v_79)) (or (or ?v_37 ?v_102) P4)) (or (or ?v_96 ?v_72) ?v_52)) (or (or ?v_77 P1) ?v_42)) (or (or ?v_175 ?v_176) ?v_62)) (or (or P10 ?v_177) ?v_125)) (or (or ?v_75 ?v_145) P25)) (or (or ?v_95 ?v_178) ?v_77)) (or (or ?v_125 ?v_33) ?v_59)) (or (or ?v_90 ?v_77) ?v_103)) (or (or ?v_88 ?v_160) ?v_70)) (or (or ?v_49 ?v_131) ?v_99)) (or (or ?v_179 ?v_87) ?v_64)) (or (or ?v_177 P31) ?v_47)) (or (or ?v_142 P19) ?v_99)) (or (or P21 ?v_15) ?v_8)) (or (or ?v_52 ?v_138) ?v_166)) (or (or ?v_188 ?v_48) ?v_148)) (or (or ?v_97 ?v_131) ?v_86)) (or (or ?v_72 ?v_110) ?v_180)) (or (or ?v_61 ?v_94) ?v_14)) (or (or ?v_112 ?v_61) ?v_202)) (or (or ?v_39 ?v_181) ?v_88)) (or (or ?v_114 ?v_100) ?v_68)) (or (or ?v_68 P6) ?v_27)) (or (or ?v_54 ?v_49) ?v_110)) (or (or ?v_42 ?v_88) P37)) (or (or ?v_41 ?v_99) ?v_66)) (or (or ?v_74 ?v_104) P25)) (or (or ?v_164 ?v_88) ?v_83)) (or (or ?v_98 ?v_112) ?v_48)) (or (or P0 ?v_69) P35)) (or (or ?v_41 P25) ?v_132)) (or (or ?v_60 ?v_113) P15)) (or (or ?v_172 P14) ?v_24)) (or (or ?v_182 ?v_178) ?v_37)) (or (or ?v_27 ?v_25) ?v_20)) (or (or ?v_204 ?v_164) ?v_25)) (or ?v_183 ?v_88)) (or (or P4 ?v_110) ?v_156)) (or (or ?v_88 P4) ?v_45)) (or (or P0 ?v_73) ?v_125)) (or (or ?v_138 ?v_185) ?v_116)) (or (or ?v_175 ?v_97) ?v_33)) (or (or ?v_125 ?v_126) ?v_23)) (or (or ?v_55 P7) ?v_184)) (or (or P28 ?v_95) ?v_82)) (or (or ?v_31 ?v_83) ?v_168)) (or (or ?v_129 ?v_159) ?v_185)) (or (or ?v_173 ?v_128) ?v_142)) (or (or ?v_117 ?v_59) ?v_98)) (or (or ?v_95 ?v_154) ?v_197)) (or (or ?v_21 ?v_113) ?v_3)) (or (or ?v_186 ?v_138) ?v_187)) (or (or ?v_188 ?v_26) ?v_62)) (or (or ?v_1 P32) ?v_186)) (or (or ?v_147 ?v_77) ?v_113)) (or (or P33 ?v_110) P29)) (or (or P1 P20) P16)) (or (or ?v_21 ?v_146) ?v_45)) (or (or ?v_73 ?v_189) ?v_95)) (or (or ?v_14 ?v_54) ?v_99)) (or (or ?v_4 ?v_0) ?v_162)) (or (or ?v_192 ?v_72) ?v_113)) (or (or ?v_117 P23) ?v_126)) (or (or ?v_71 ?v_26) P15)) (or (or ?v_179 ?v_169) ?v_32)) (or (or ?v_190 ?v_3) ?v_110)) (or (or ?v_154 ?v_41) P30)) (or (or ?v_154 ?v_153) P2)) (or (or ?v_85 P29) ?v_50)) (or (or ?v_33 ?v_191) ?v_177)) (or (or ?v_125 ?v_37) ?v_163)) (or (or ?v_75 ?v_153) ?v_30)) (or (or ?v_73 ?v_6) ?v_173)) (or (or P28 P38) ?v_115)) (or (or ?v_156 ?v_30) ?v_145)) (or (or P29 ?v_100) ?v_31)) (or (or ?v_88 ?v_62) ?v_18)) (or (or P34 ?v_60) ?v_158)) (or (or P4 P36) ?v_112)) (or (or ?v_101 ?v_122) ?v_17)) (or (or ?v_71 P5) ?v_192)) (or (or ?v_157 ?v_105) P17)) (or (or ?v_104 ?v_88) P16)) (or (or ?v_101 P19) ?v_6)) (or (or ?v_42 ?v_62) ?v_123)) (or (or ?v_193 P13) ?v_2)) (or (or ?v_89 ?v_203) ?v_84)) (or (or ?v_118 ?v_48) ?v_187)) (or (or ?v_64 ?v_79) ?v_194)) (or (or ?v_33 P26) P18)) (or (or ?v_195 P38) ?v_35)) (or (or ?v_92 ?v_136) ?v_95)) (or (or ?v_8 ?v_122) ?v_168)) (or (or ?v_74 ?v_78) ?v_64)) (or (or P1 ?v_16) ?v_34)) (or (or P31 ?v_190) ?v_1)) (or (or ?v_54 ?v_90) ?v_107)) (or (or ?v_198 P9) P14)) (or (or ?v_44 P4) P18)) (or (or P14 ?v_126) ?v_85)) (or (or ?v_113 (not P5)) P8)) (or (or ?v_178 ?v_157) ?v_102)) (or (or ?v_61 ?v_153) ?v_79)) (or (or ?v_6 P21) P1)) (or (or ?v_160 ?v_45) P1)) (or (or ?v_58 ?v_141) P3)) (or (or ?v_102 ?v_45) ?v_113)) (or (or P16 P36) P37)) (or (or ?v_147 ?v_168) ?v_1)) (or (or ?v_91 ?v_20) ?v_194)) (or (or ?v_127 P39) ?v_172)) (or (or ?v_141 P1) ?v_99)) (or (or ?v_155 ?v_135) ?v_34)) (or (or ?v_86 ?v_0) ?v_11)) (or (or ?v_64 ?v_149) ?v_181)) (or (or ?v_90 P35) ?v_196)) (or (or P12 P26) P28)) (or (or ?v_186 ?v_190) ?v_107)) (or (or ?v_146 ?v_160) P23)) (or (or ?v_98 ?v_193) ?v_74)) (or (or ?v_85 ?v_119) ?v_71)) (or (or P5 ?v_87) ?v_163)) (or (or ?v_171 ?v_197) ?v_127)) (or (or ?v_157 ?v_137) ?v_96)) (or (or ?v_49 P10) ?v_28)) (or (or ?v_5 ?v_25) P29)) (or (or ?v_102 ?v_172) ?v_105)) (or (or P24 ?v_197) P20)) (or (or ?v_205 ?v_81) ?v_198)) (or (or P11 ?v_102) ?v_199)) (or (or P11 ?v_125) ?v_126)) (or (or ?v_182 ?v_31) ?v_23)) (or (or ?v_153 P9) ?v_139)) (or (or ?v_67 ?v_21) ?v_91)) (or (or ?v_145 ?v_159) ?v_128)) (or (or ?v_147 ?v_47) P36)) (or (or ?v_79 ?v_149) ?v_120)) (or (or ?v_89 ?v_186) ?v_107)) (or (or ?v_93 P32) ?v_108)) (or (or P27 ?v_80) ?v_200)) (or ?v_201 ?v_53)) (or (or ?v_182 ?v_14) ?v_140)) (or (or ?v_39 ?v_19) ?v_167)) (or (or ?v_135 ?v_82) ?v_147)) (or (or ?v_98 P31) P9)) (or (or ?v_120 P1) ?v_38)) (or (or ?v_136 ?v_55) ?v_202)) (or (or ?v_88 P36) P38)) (or (or ?v_164 ?v_117) ?v_22)) (or (or ?v_189 ?v_156) ?v_16)) (or (or ?v_38 ?v_5) ?v_92)) (or (or ?v_8 ?v_87) P9)) (or (or ?v_128 ?v_91) ?v_153)) (or (or ?v_90 ?v_99) ?v_53)) (or (or ?v_203 ?v_181) P37)) (or (or ?v_165 ?v_56) ?v_106)) (or (or ?v_154 ?v_144) ?v_109)) (or (or ?v_151 ?v_142) ?v_28)) (or (or ?v_143 ?v_141) ?v_142)) (or (or ?v_146 P2) ?v_133)) (or (or ?v_204 ?v_104) ?v_91)) (or (or ?v_199 ?v_34) ?v_12)) (or (or ?v_146 ?v_184) ?v_62)) (or (or ?v_33 P27) ?v_34)) (or (or P0 ?v_96) ?v_181)) (or (or P38 P2) P31)) (or (or ?v_123 ?v_159) ?v_195)) (or (or ?v_128 ?v_206) ?v_6)) (or (or ?v_8 ?v_152) ?v_129)) (or (or P11 ?v_148) P1)) (or (or P14 ?v_67) ?v_3)) (or (or P12 ?v_82) ?v_96)) (or (or ?v_184 P4) ?v_113)) (or (or ?v_182 P35) ?v_42)) (or (or ?v_205 ?v_135) ?v_84)) (or (or P3 ?v_146) ?v_124)) (or (or ?v_111 ?v_166) P35)) (or (or ?v_161 ?v_89) ?v_43)) (or (or ?v_52 P28) ?v_156)) (or (or ?v_124 P20) P11)) (or (or ?v_81 ?v_157) ?v_206)) (or (or ?v_83 ?v_160) P2)) (or (or ?v_74 ?v_33) ?v_106)) (or (or ?v_71 ?v_191) ?v_30)) (or (or ?v_96 ?v_19) ?v_129)) (or (or ?v_67 ?v_146) ?v_74)) (or (or ?v_70 ?v_154) ?v_75)) (or (or ?v_162 ?v_148) ?v_140)) (or (or ?v_0 ?v_171) P19)) (or (or ?v_65 ?v_153) P11)) (or (or ?v_49 ?v_147) ?v_20)) (or (or ?v_113 ?v_106) ?v_90)) (or (or P24 ?v_137) ?v_193)) (or (or P14 ?v_95) ?v_70)) (or (or ?v_155 ?v_181) ?v_148)) (or (or ?v_123 ?v_21) ?v_181)) (or (or ?v_101 ?v_107) P20)) (or (or ?v_184 P10) ?v_20)) (or (or ?v_185 P16) ?v_193)) (or (or ?v_115 ?v_122) ?v_197)) (or (or ?v_146 ?v_150) ?v_184)) (or (or P25 ?v_96) ?v_89)) (or (or ?v_88 ?v_76) P21)) (or (or ?v_19 P30) ?v_127)) (or (or ?v_79 ?v_56) ?v_100)) (or (or ?v_207 ?v_17) ?v_83)) (or (or ?v_62 ?v_192) ?v_61)) (or (or ?v_16 ?v_126) ?v_12)) (or (or ?v_84 ?v_162) ?v_207)) (or (or ?v_64 ?v_155) (not ?v_177))) (or (or P1 ?v_130) ?v_34)) (or (or ?v_15 ?v_189) ?v_207)) (or (or ?v_150 ?v_73) ?v_110)) (or (or ?v_22 ?v_37) ?v_155)) (or (or P20 ?v_106) ?v_115)) (or (or ?v_168 ?v_17) ?v_71)) (or (or ?v_180 ?v_197) P31)) (or (or ?v_92 P38) ?v_159)) (or (or ?v_76 ?v_98) ?v_49)) (or (or ?v_8 ?v_32) (not ?v_200))) (or (or ?v_204 ?v_191) ?v_15)) (or (or ?v_64 ?v_171) ?v_25)) (or (or ?v_122 ?v_57) P29)) (or (or ?v_190 ?v_156) ?v_25)) (or (or ?v_113 ?v_188) ?v_0)) (or (or ?v_94 ?v_199) P27)) (or (or ?v_87 ?v_143) ?v_55)) (or (or ?v_67 ?v_44) P24)) (or (or P36 ?v_85) ?v_189)))))))))))))))))))))))))))))
(check-sat)
(exit)
